Route #1: 1 7 35 5 55 6 10 1
Route #2: 1 11 53 57 42 14 62 25 61 17 9 47 1
Route #3: 1 26 30 34 49 46 54 1
Route #4: 1 16 29 44 2 18 28 15 37 41 8 1
Route #5: 1 43 63 20 1
Route #6: 1 4 12 58 31 50 56 22 1
Route #7: 1 21 52 24 38 51 59 1
Route #8: 1 33 48 64 3 45 40 60 32 36 27 13 1
Route #9: 1 19 23 39 1
cost 1769
